========================================================== 
File name: C:\DEGR\assets\definitions\MSRCPSP_Gen\1000_40_1024_5_D.def
Creation date: Sat May 06 09:21:04 CEST 2023
Website: http://imopse.ii.pwr.edu.pl/ 
Reference: 
Myszkowski P. B., Skowronski M. E., Olech L., Oslizlo K., 
Hybrid Ant Colony Optimization in solving Multi-Skill Resource-Constrained Project Scheduling Problem, 
Soft Computing, DOI: DOI 10.1007/s00500-014-1455-x 
========================================================== 
General characteristics: 
Tasks: 1000
Resources: 40
Precedence relations: 1022
Number of skill types: 5
========================================================== 
ResourceID 	 Salary 	 Skills 
1	 	 	67.2	 	 Q1: 2 	  Q4: 3 	  Q0: 0 	 
2	 	 	91.6	 	 Q4: 1 	  Q2: 0 	 
3	 	 	72.2	 	 Q3: 2 	  Q4: 2 	  Q2: 2 	 
4	 	 	12.7	 	 Q0: 2 	  Q4: 3 	 
5	 	 	16.0	 	 Q1: 3 	  Q4: 2 	 
6	 	 	38.0	 	 Q3: 3 	  Q1: 3 	  Q4: 3 	  Q0: 2 	 
7	 	 	90.7	 	 Q0: 1 	  Q4: 2 	  Q2: 3 	 
8	 	 	51.7	 	 Q2: 3 	  Q1: 2 	  Q0: 0 	 
9	 	 	33.8	 	 Q0: 3 	  Q1: 2 	  Q3: 0 	  Q4: 2 	 
10	 	 	81.5	 	 Q3: 0 	 
11	 	 	11.8	 	 Q3: 2 	  Q4: 3 	  Q2: 3 	 
12	 	 	19.7	 	 Q1: 3 	  Q2: 2 	  Q0: 0 	 
13	 	 	16.5	 	 Q0: 1 	  Q3: 0 	  Q2: 0 	  Q1: 3 	 
14	 	 	66.8	 	 Q0: 3 	 
15	 	 	43.3	 	 Q1: 2 	 
16	 	 	33.6	 	 Q4: 2 	  Q1: 3 	 
17	 	 	65.3	 	 Q2: 3 	 
18	 	 	77.1	 	 Q4: 2 	  Q0: 0 	  Q2: 2 	  Q1: 3 	 
19	 	 	27.3	 	 Q2: 2 	  Q1: 1 	  Q4: 3 	  Q3: 3 	 
20	 	 	14.7	 	 Q4: 2 	  Q1: 0 	  Q0: 3 	  Q3: 2 	 
21	 	 	26.1	 	 Q3: 2 	  Q1: 2 	  Q4: 3 	 
22	 	 	6.6	 	 Q2: 1 	  Q3: 3 	  Q0: 1 	 
23	 	 	55.1	 	 Q0: 3 	  Q2: 1 	  Q1: 1 	 
24	 	 	48.5	 	 Q0: 2 	  Q1: 0 	 
25	 	 	81.3	 	 Q0: 3 	  Q3: 2 	 
26	 	 	81.2	 	 Q1: 1 	  Q3: 1 	  Q2: 2 	 
27	 	 	87.8	 	 Q4: 3 	  Q0: 1 	 
28	 	 	24.0	 	 Q4: 0 	 
29	 	 	11.7	 	 Q3: 1 	  Q2: 0 	  Q1: 3 	 
30	 	 	9.6	 	 Q2: 0 	  Q3: 3 	 
31	 	 	30.0	 	 Q2: 1 	  Q1: 2 	  Q3: 2 	  Q4: 1 	 
32	 	 	29.9	 	 Q4: 3 	 
33	 	 	93.2	 	 Q3: 1 	  Q0: 3 	 
34	 	 	83.8	 	 Q1: 1 	  Q2: 3 	  Q0: 0 	  Q3: 1 	 
35	 	 	65.2	 	 Q2: 3 	 
36	 	 	56.5	 	 Q2: 3 	  Q0: 0 	  Q1: 1 	 
37	 	 	72.6	 	 Q1: 1 	  Q0: 1 	 
38	 	 	10.2	 	 Q0: 3 	  Q3: 3 	  Q4: 2 	 
39	 	 	58.7	 	 Q1: 0 	 
40	 	 	38.7	 	 Q4: 0 	 
========================================================== 
TaskID 	 Duration 	 Skill 	 Predecessor IDs 
1	26	Q3:	3
2	36	Q2:	0
3	19	Q2:	0
4	34	Q2:	2
5	26	Q0:	0
6	34	Q4:	2
7	25	Q1:	2
8	18	Q1:	0
9	32	Q0:	0
10	33	Q3:	1
11	9	Q2:	1
12	19	Q1:	0
13	26	Q4:	2
14	31	Q1:	0
15	33	Q1:	0
16	24	Q4:	1
17	17	Q4:	0	15
18	14	Q0:	3
19	31	Q0:	0
20	39	Q1:	1
21	29	Q1:	0
22	22	Q3:	1
23	17	Q0:	0
24	38	Q1:	1
25	35	Q0:	1
26	9	Q2:	3
27	37	Q1:	1
28	25	Q4:	2	23
29	19	Q2:	3
30	15	Q2:	0
31	39	Q0:	0
32	22	Q3:	2
33	14	Q1:	1	20
34	31	Q3:	3	27
35	36	Q4:	1
36	32	Q1:	2
37	39	Q1:	3
38	24	Q3:	0
39	21	Q3:	1
40	20	Q3:	3	26
41	38	Q0:	2
42	19	Q1:	0
43	24	Q2:	0
44	36	Q3:	3
45	17	Q3:	0
46	15	Q1:	3
47	13	Q3:	2
48	34	Q1:	3
49	11	Q0:	3	6
50	35	Q1:	1
51	39	Q0:	2
52	31	Q1:	0
53	20	Q2:	3
54	21	Q2:	1
55	34	Q0:	2
56	15	Q3:	1
57	19	Q3:	2
58	40	Q4:	3
59	21	Q2:	3
60	17	Q4:	2	33
61	29	Q0:	1
62	40	Q3:	3
63	26	Q2:	3
64	21	Q4:	0
65	32	Q2:	3
66	40	Q2:	0
67	22	Q2:	0
68	13	Q2:	1
69	22	Q3:	2	46	15
70	28	Q1:	2
71	17	Q4:	2
72	29	Q4:	0	59
73	30	Q3:	1
74	37	Q1:	2
75	33	Q1:	1	72
76	21	Q0:	0
77	9	Q1:	2
78	18	Q4:	1
79	13	Q4:	0
80	35	Q0:	3
81	33	Q4:	3
82	15	Q1:	1
83	23	Q3:	0
84	38	Q0:	2
85	33	Q1:	1
86	33	Q4:	2
87	27	Q2:	2
88	34	Q1:	0
89	39	Q2:	0
90	28	Q2:	0
91	28	Q3:	2
92	39	Q2:	0
93	31	Q1:	2
94	16	Q0:	0
95	11	Q0:	3
96	17	Q0:	1	10
97	25	Q0:	1
98	25	Q2:	0
99	26	Q2:	0
100	18	Q3:	3	1
101	33	Q2:	1
102	28	Q1:	3
103	32	Q4:	1	17
104	32	Q0:	1	72
105	22	Q0:	3
106	36	Q1:	0
107	28	Q1:	3
108	24	Q3:	3	67
109	34	Q4:	1
110	26	Q1:	3	89
111	16	Q3:	3	69
112	31	Q2:	0
113	40	Q3:	0
114	20	Q3:	1	92
115	19	Q3:	1
116	15	Q4:	0
117	29	Q2:	0
118	10	Q2:	3
119	12	Q2:	1
120	39	Q1:	2
121	19	Q3:	3
122	10	Q1:	0
123	26	Q4:	1	101
124	30	Q4:	1
125	9	Q4:	1
126	35	Q4:	2
127	24	Q4:	2	63
128	22	Q0:	0	123
129	35	Q0:	3
130	15	Q2:	1
131	23	Q1:	3
132	27	Q2:	2
133	13	Q0:	0
134	33	Q2:	2
135	12	Q3:	0
136	22	Q3:	0
137	16	Q2:	3
138	24	Q3:	1
139	17	Q0:	2
140	38	Q4:	2
141	17	Q3:	3
142	40	Q0:	3
143	37	Q2:	0
144	36	Q4:	0
145	28	Q4:	0	73
146	10	Q4:	2
147	18	Q2:	1
148	12	Q3:	0
149	26	Q0:	2
150	14	Q1:	1
151	23	Q0:	3
152	28	Q4:	2
153	25	Q3:	1
154	19	Q3:	2
155	38	Q3:	1
156	25	Q1:	0
157	31	Q1:	0
158	38	Q0:	3
159	29	Q0:	3
160	37	Q2:	1
161	32	Q1:	0	112
162	10	Q3:	3	160
163	14	Q0:	0
164	38	Q1:	2	39
165	40	Q2:	1	156	4
166	39	Q4:	3	34
167	15	Q4:	1	93
168	23	Q0:	3	36
169	20	Q0:	1	162
170	22	Q1:	2
171	10	Q3:	3
172	25	Q2:	0
173	31	Q0:	3	169
174	16	Q3:	1
175	16	Q2:	0
176	18	Q0:	3
177	35	Q3:	0
178	9	Q2:	2
179	21	Q0:	3	131
180	36	Q2:	2	19	155
181	29	Q0:	1
182	26	Q3:	2
183	17	Q4:	2	85
184	25	Q0:	3
185	35	Q1:	1
186	37	Q0:	0	34	57
187	35	Q4:	2	80
188	27	Q2:	3	52
189	20	Q0:	0
190	17	Q3:	2
191	13	Q0:	0
192	35	Q1:	0
193	38	Q0:	2
194	17	Q4:	2	129	122
195	16	Q1:	0
196	27	Q0:	1
197	35	Q1:	2
198	32	Q2:	2	6
199	27	Q1:	1
200	23	Q3:	1
201	25	Q2:	0
202	24	Q1:	3	91	113
203	11	Q1:	1	136	24
204	31	Q3:	0
205	37	Q0:	2
206	14	Q2:	3
207	25	Q4:	1
208	16	Q3:	0
209	40	Q1:	1
210	13	Q0:	1	144
211	23	Q2:	3
212	16	Q3:	0
213	38	Q4:	3
214	39	Q3:	1
215	9	Q3:	1
216	12	Q0:	3
217	13	Q3:	2
218	30	Q4:	2
219	26	Q2:	3
220	18	Q3:	1	81
221	20	Q3:	0	206
222	11	Q3:	2
223	36	Q1:	2
224	14	Q0:	1
225	10	Q4:	1
226	35	Q0:	0
227	30	Q0:	2
228	9	Q0:	0
229	28	Q0:	2	155
230	26	Q1:	1	3	195
231	33	Q0:	3
232	17	Q4:	1
233	40	Q0:	3
234	29	Q2:	2
235	40	Q0:	3
236	31	Q4:	2
237	26	Q1:	0	82
238	30	Q1:	2
239	21	Q0:	1
240	35	Q4:	2
241	11	Q2:	0	34
242	10	Q1:	2
243	20	Q4:	0
244	23	Q1:	0
245	25	Q4:	2
246	9	Q2:	0	97	174	36
247	26	Q0:	1
248	40	Q1:	0
249	11	Q4:	3
250	40	Q4:	3	200	203
251	23	Q4:	2
252	16	Q4:	0	31	29
253	13	Q1:	2
254	30	Q0:	2
255	23	Q1:	3	61
256	27	Q0:	1	32
257	13	Q2:	0
258	40	Q2:	1	121
259	37	Q3:	2	105
260	15	Q4:	2	74
261	18	Q2:	3
262	11	Q1:	1	54
263	12	Q3:	3
264	23	Q1:	1
265	16	Q0:	0
266	17	Q0:	0
267	19	Q4:	0	141	172	3
268	28	Q4:	2
269	36	Q1:	1	153
270	29	Q4:	3
271	32	Q0:	0
272	17	Q1:	3	140
273	19	Q2:	2
274	40	Q0:	2	104
275	9	Q3:	3
276	33	Q2:	2
277	18	Q1:	1	110
278	33	Q2:	2	56
279	36	Q4:	0
280	26	Q3:	0
281	37	Q4:	1	112
282	14	Q3:	0
283	27	Q0:	1	246
284	38	Q3:	2	39	153
285	11	Q1:	1
286	36	Q4:	2	22
287	16	Q1:	3	167
288	28	Q2:	2
289	18	Q0:	2
290	24	Q4:	3
291	18	Q3:	3
292	40	Q3:	2
293	23	Q3:	1
294	14	Q2:	2
295	26	Q2:	0	73	136
296	38	Q1:	0
297	32	Q3:	0	239
298	32	Q1:	1	231
299	36	Q3:	3
300	15	Q3:	0
301	18	Q0:	3
302	22	Q1:	3
303	23	Q3:	0	26	291
304	11	Q3:	0
305	11	Q2:	2
306	37	Q3:	1	148
307	11	Q1:	1
308	37	Q2:	1	206
309	35	Q0:	0
310	24	Q3:	3	281
311	13	Q4:	0	290
312	34	Q3:	0
313	15	Q2:	3
314	10	Q4:	0	241	177
315	35	Q0:	3	10
316	11	Q4:	3	179	174
317	17	Q4:	3	247	135	276	31
318	19	Q0:	1	231
319	12	Q2:	0
320	12	Q2:	2
321	33	Q4:	3
322	25	Q3:	3
323	29	Q1:	0	314	28	64
324	36	Q3:	1	161	227
325	21	Q1:	2	70
326	27	Q2:	1
327	33	Q0:	2	284
328	11	Q4:	3	208
329	35	Q3:	0	160	210
330	10	Q2:	1	147	139
331	16	Q0:	2
332	20	Q3:	0
333	32	Q2:	2
334	12	Q2:	0	237	255	145
335	38	Q3:	1	317
336	31	Q0:	3	51
337	30	Q3:	1
338	28	Q1:	2
339	25	Q1:	0
340	36	Q2:	1	62
341	22	Q2:	1	331	230	91
342	35	Q1:	2
343	37	Q1:	1	137
344	25	Q1:	1
345	17	Q3:	2	181
346	35	Q2:	2
347	13	Q1:	2
348	34	Q1:	3
349	36	Q1:	2
350	13	Q4:	3
351	13	Q2:	3
352	10	Q3:	3	182	203
353	10	Q1:	0	178	24
354	19	Q2:	2	123	65	327
355	12	Q1:	2
356	39	Q1:	2
357	18	Q1:	3	2
358	23	Q4:	0
359	27	Q4:	1
360	38	Q3:	1
361	17	Q1:	2
362	38	Q3:	0	63	330
363	10	Q0:	1	73	346	50
364	24	Q2:	3
365	28	Q4:	2
366	27	Q1:	2	312
367	14	Q1:	1	191
368	16	Q2:	0	283
369	13	Q0:	0
370	30	Q2:	3
371	30	Q0:	2	295
372	13	Q3:	0	246
373	28	Q1:	2
374	16	Q4:	2	340
375	31	Q2:	0
376	27	Q0:	2	272
377	20	Q3:	1	173
378	18	Q4:	0	149
379	15	Q3:	1	5
380	25	Q3:	2
381	20	Q0:	1	360	293
382	38	Q4:	3	352	236
383	37	Q3:	2	317	364	328
384	17	Q0:	3	134
385	21	Q0:	2	256	89
386	33	Q0:	2	161
387	18	Q0:	2
388	15	Q3:	2	368
389	36	Q3:	3	34	67
390	30	Q1:	2
391	29	Q4:	0	179
392	29	Q4:	2	121	203
393	23	Q2:	3
394	12	Q3:	3
395	33	Q4:	2	240
396	20	Q4:	2	117	109
397	30	Q0:	0
398	21	Q3:	2	358	93
399	35	Q3:	0
400	26	Q3:	0	14
401	24	Q4:	0
402	35	Q3:	3	231
403	24	Q4:	0	347
404	40	Q2:	1	210	173	119
405	28	Q0:	0	372
406	22	Q3:	0	224
407	33	Q4:	1
408	30	Q1:	2	71
409	19	Q2:	2
410	15	Q3:	2
411	40	Q2:	0	82
412	28	Q4:	2
413	21	Q2:	3
414	34	Q3:	1
415	22	Q3:	3	233
416	31	Q3:	0
417	28	Q3:	3
418	22	Q0:	1
419	28	Q0:	0	232
420	34	Q2:	1	283
421	38	Q4:	2	14
422	24	Q2:	3
423	18	Q1:	3
424	20	Q0:	1	291
425	26	Q1:	1
426	32	Q4:	3	56	85
427	22	Q4:	2	247
428	14	Q1:	3
429	31	Q4:	3	126	133	55	351
430	12	Q0:	0
431	38	Q3:	0
432	27	Q0:	2
433	32	Q2:	3
434	23	Q3:	1	286	145
435	40	Q0:	2	201
436	9	Q1:	3	162	134	27
437	22	Q2:	3
438	18	Q2:	3	74
439	10	Q0:	2	360	11	323
440	11	Q3:	3	394
441	32	Q3:	2	376	389	276
442	37	Q0:	1	183	311
443	14	Q0:	2
444	35	Q0:	2	438
445	30	Q0:	0
446	36	Q0:	2
447	19	Q0:	3	189	302
448	38	Q0:	2	321
449	39	Q4:	3
450	29	Q0:	3	146
451	37	Q0:	3
452	39	Q2:	1	91
453	27	Q0:	2
454	32	Q2:	0	93	78
455	29	Q0:	1	384
456	9	Q0:	3	414
457	15	Q4:	0
458	16	Q1:	3
459	11	Q1:	0	259
460	29	Q0:	2	434
461	28	Q4:	2	420	128
462	37	Q2:	1
463	13	Q3:	1
464	39	Q3:	2	306
465	38	Q0:	0
466	27	Q3:	3	77	12
467	11	Q0:	1
468	40	Q4:	1
469	32	Q3:	2	188	461
470	11	Q2:	1	79
471	24	Q2:	3
472	34	Q0:	0
473	33	Q0:	1	142
474	11	Q0:	0
475	9	Q4:	3
476	22	Q0:	3	420	78	405
477	11	Q4:	1	92
478	40	Q2:	0
479	9	Q3:	0	327
480	33	Q3:	2
481	19	Q1:	2
482	12	Q2:	2	149
483	18	Q1:	0	35
484	35	Q1:	3
485	18	Q4:	1
486	36	Q2:	3	424
487	12	Q2:	2	48	149
488	33	Q3:	3
489	10	Q1:	3	23
490	17	Q0:	2
491	38	Q1:	2
492	35	Q4:	1
493	30	Q2:	1	319
494	14	Q3:	3
495	19	Q4:	1
496	29	Q3:	1	145	388
497	24	Q0:	1
498	29	Q0:	2
499	21	Q1:	3
500	9	Q4:	1	34
501	25	Q1:	1
502	29	Q2:	3	152
503	26	Q0:	3	89	217
504	39	Q1:	3	323
505	35	Q4:	0	222
506	14	Q3:	2	421
507	20	Q2:	0	31
508	40	Q0:	0	36
509	17	Q4:	1	119	13	80
510	26	Q3:	0	285
511	21	Q4:	1	372
512	13	Q0:	2
513	36	Q3:	0	221
514	24	Q0:	3	94
515	19	Q3:	0	494	22	293	115
516	33	Q2:	1	247
517	28	Q1:	0	387
518	26	Q3:	0	286	185	27
519	38	Q2:	3
520	21	Q4:	3	257	348	160
521	12	Q3:	1	148
522	9	Q3:	2
523	19	Q1:	1
524	27	Q2:	2	215	74
525	16	Q0:	0
526	36	Q3:	0	101
527	10	Q4:	3	491
528	13	Q4:	0	122
529	36	Q0:	0	113	471	4
530	17	Q3:	0	523	48
531	31	Q2:	2
532	35	Q4:	2	210	497
533	23	Q4:	3
534	10	Q4:	3
535	40	Q4:	1	487
536	22	Q1:	1
537	10	Q1:	0	146	352
538	25	Q3:	1	171
539	38	Q2:	0	267	61
540	18	Q0:	3	3
541	15	Q2:	2	161
542	31	Q1:	0
543	26	Q1:	2	458	367
544	23	Q4:	2	496
545	24	Q4:	1
546	20	Q2:	0	411
547	18	Q0:	2	258
548	32	Q1:	0	376
549	29	Q3:	3	353	243
550	18	Q0:	1	355
551	12	Q0:	2
552	10	Q3:	3	248	453
553	30	Q2:	0	177	172
554	30	Q2:	1
555	17	Q1:	3	229	72
556	36	Q4:	1	196
557	23	Q2:	3
558	23	Q2:	1	83
559	33	Q4:	1	365
560	32	Q0:	1	473
561	18	Q2:	3	520
562	18	Q1:	2	324	211	2	392	105
563	16	Q3:	2	213	244
564	18	Q2:	1
565	38	Q3:	3	473	392
566	26	Q0:	3	269
567	38	Q4:	1	255
568	28	Q2:	3	293	353	141	159	457
569	20	Q3:	1	178
570	12	Q4:	1
571	38	Q3:	1
572	23	Q2:	1	205
573	13	Q1:	2
574	34	Q2:	2	369	551
575	40	Q3:	2	328	3
576	33	Q0:	0
577	10	Q0:	2	146	234	526
578	22	Q4:	3
579	36	Q2:	0	136
580	11	Q3:	2	74	573
581	17	Q3:	0	173	15	285
582	25	Q3:	0
583	27	Q4:	3	531
584	17	Q2:	2	489
585	16	Q1:	1
586	16	Q2:	0	273
587	11	Q2:	2
588	34	Q3:	3	249	490
589	17	Q1:	0	141
590	33	Q4:	2	108	150
591	36	Q1:	3	211
592	10	Q1:	2
593	40	Q2:	0	51	206
594	15	Q1:	3	181	76	22	101
595	25	Q1:	0
596	22	Q2:	0	154	39	284
597	14	Q0:	0
598	27	Q2:	3	96
599	37	Q2:	0
600	32	Q3:	3
601	23	Q4:	1
602	21	Q1:	3	256	19	384	572
603	35	Q1:	0
604	19	Q1:	0
605	38	Q4:	0
606	38	Q0:	1	344
607	36	Q4:	2	237	258	352
608	32	Q3:	0	208
609	24	Q1:	0	425
610	40	Q1:	0	224
611	38	Q3:	0	166
612	21	Q2:	0	308
613	21	Q4:	0
614	33	Q2:	3
615	27	Q3:	2
616	15	Q4:	3	580
617	39	Q4:	0
618	24	Q0:	1	370	157	512	217
619	19	Q2:	1	286	304
620	19	Q1:	3	243	378
621	37	Q0:	1	407
622	27	Q2:	0	364	15
623	13	Q4:	3
624	38	Q3:	0	316	530
625	22	Q3:	3	447	237
626	25	Q0:	3	578
627	21	Q4:	1	60
628	18	Q1:	0	500	142
629	25	Q0:	3	122	519
630	10	Q3:	3	3	457
631	31	Q1:	1	209	87	426
632	10	Q2:	0	87	145
633	22	Q0:	3	59	362	394
634	26	Q3:	3
635	18	Q2:	3
636	13	Q4:	0	384	635
637	17	Q1:	3	77	269	42
638	11	Q0:	3	323
639	28	Q1:	2
640	20	Q1:	0	227
641	14	Q0:	3
642	28	Q2:	1	576
643	33	Q3:	1	99	30	143
644	37	Q4:	0	414	603
645	19	Q3:	3	238
646	12	Q0:	3	4	120	147
647	17	Q1:	3	625	233
648	13	Q1:	3	508
649	38	Q0:	1	405	210
650	15	Q1:	0	491	477	446
651	9	Q4:	2	12	192
652	8	Q4:	2	72
653	17	Q4:	1	44	408	639
654	30	Q3:	2	570
655	27	Q2:	0	98
656	20	Q3:	0	490	445	97
657	39	Q0:	3	569
658	34	Q0:	2	425
659	13	Q4:	1	246	460
660	25	Q2:	3	347	167
661	15	Q2:	3	116
662	15	Q2:	0	494	265
663	37	Q3:	3	315	244
664	26	Q3:	1	593	244
665	16	Q1:	2	339
666	30	Q0:	0	113
667	32	Q4:	1	447
668	21	Q3:	1	540
669	25	Q4:	2	121	570
670	10	Q1:	2	574	236
671	31	Q3:	3	378	35	194
672	16	Q4:	2	470	503
673	37	Q4:	3	150	271
674	11	Q3:	1	248	155
675	19	Q0:	1
676	31	Q1:	3	331	96	632	346
677	27	Q0:	3
678	40	Q4:	3	573
679	29	Q3:	3
680	15	Q3:	1	257	657
681	14	Q1:	2
682	34	Q0:	0
683	39	Q1:	1	18	270	312	262
684	36	Q2:	1	187	113
685	39	Q3:	3
686	18	Q1:	0	407
687	16	Q1:	3	58	483	651
688	37	Q4:	0	287
689	29	Q1:	1	392	77
690	29	Q3:	1	187	182
691	10	Q4:	1	620	170
692	31	Q0:	2
693	11	Q3:	2	438
694	14	Q0:	0
695	38	Q4:	1	449
696	33	Q3:	0
697	30	Q4:	0
698	28	Q0:	2
699	28	Q1:	3
700	12	Q0:	3
701	28	Q4:	3	156	228	602
702	9	Q4:	2	621	273	275
703	35	Q2:	1	105
704	9	Q2:	1	440	110
705	26	Q4:	0	648	616
706	29	Q0:	1
707	38	Q1:	0	508
708	31	Q3:	1	634
709	37	Q0:	0	666	194	564	142
710	11	Q2:	0	341	259
711	30	Q0:	3	238
712	22	Q4:	2
713	28	Q3:	2
714	40	Q0:	3
715	23	Q0:	2	429	415	41
716	36	Q0:	1	252
717	10	Q3:	0	429	588	463	575
718	25	Q4:	1
719	25	Q0:	0	243	537	263
720	15	Q0:	0	12	336	503	258
721	21	Q2:	1	76
722	40	Q1:	2
723	12	Q3:	2	677	617
724	24	Q2:	1	567
725	36	Q3:	2	638	253
726	17	Q1:	3
727	21	Q0:	3	697
728	40	Q0:	3	682	172
729	28	Q1:	1
730	32	Q3:	2
731	19	Q2:	1	309	639	527	257	164
732	9	Q0:	1
733	18	Q3:	0	486	712
734	14	Q1:	2	727
735	15	Q4:	2	129	396
736	10	Q3:	1
737	28	Q0:	1	395	203
738	20	Q2:	3	247	630
739	40	Q3:	1	374
740	21	Q1:	0	231
741	26	Q3:	3	219
742	30	Q4:	1	731
743	31	Q0:	1	64	165	709
744	37	Q2:	1	593
745	20	Q2:	2
746	34	Q2:	3	554
747	20	Q1:	1	216	86	528
748	20	Q4:	0	155
749	32	Q0:	2	292
750	10	Q2:	2
751	25	Q4:	0	36	656
752	35	Q0:	1	585
753	16	Q0:	3
754	34	Q4:	2	30	627	249
755	12	Q1:	0
756	21	Q0:	2	489
757	22	Q3:	3	435	45
758	17	Q0:	0	671	547	44
759	28	Q4:	2	287
760	25	Q2:	3	547
761	17	Q3:	1	264
762	10	Q2:	0	475	24
763	20	Q1:	1	617	11	653	637
764	25	Q2:	2
765	23	Q0:	2	438	46
766	27	Q4:	1	166	23	355
767	10	Q1:	3	667	153
768	18	Q2:	3	295	198
769	21	Q1:	2	699	327	262
770	37	Q2:	0	693
771	20	Q0:	3	182
772	16	Q4:	3	595
773	32	Q3:	3	469	422
774	40	Q0:	1
775	14	Q1:	1	107
776	19	Q4:	1	383
777	16	Q0:	0
778	38	Q3:	0	419	452
779	10	Q0:	1	319	266
780	35	Q2:	2
781	27	Q3:	2	688	453	674
782	22	Q4:	0	531	17
783	37	Q4:	2	515	311	10	420
784	15	Q0:	3	482
785	10	Q3:	1
786	29	Q2:	2
787	29	Q3:	2
788	18	Q2:	2	713
789	25	Q0:	0	367
790	10	Q3:	3	74	757
791	17	Q2:	2	88	305	492
792	21	Q3:	0
793	39	Q3:	0	309	410
794	32	Q4:	0	615	406
795	21	Q0:	2	531	152	297
796	15	Q1:	1	470	579	429
797	37	Q0:	3	629
798	24	Q3:	2	68
799	27	Q1:	2
800	27	Q0:	2	507	690	452
801	37	Q4:	0	545
802	23	Q4:	2	641	570
803	22	Q1:	3	734	696
804	40	Q3:	2	456	485	121
805	22	Q3:	0	703
806	39	Q0:	1	477	750	256
807	19	Q0:	2	694
808	33	Q2:	1
809	25	Q3:	1	264
810	11	Q3:	0	674	61
811	38	Q3:	3	515	471	155
812	39	Q0:	0	751	127	622
813	26	Q1:	3
814	13	Q4:	3	556
815	28	Q1:	2	319
816	11	Q4:	2	634	716
817	15	Q2:	1	85	730
818	12	Q0:	2	19	710
819	37	Q3:	1	205	699	564	577
820	10	Q3:	1
821	26	Q0:	1	317
822	23	Q0:	1	149	800	499
823	24	Q0:	3	269	283
824	15	Q1:	1	813	231
825	9	Q3:	3	92	101	723
826	27	Q3:	2	241	762	50
827	9	Q2:	1
828	22	Q2:	3	690
829	16	Q3:	3
830	26	Q2:	3
831	40	Q3:	3	281
832	38	Q3:	3	103	158	151
833	33	Q0:	0
834	38	Q3:	3	710	521	153	203
835	39	Q4:	1	407	457
836	23	Q2:	3	187
837	17	Q4:	3	575
838	19	Q2:	0	361
839	25	Q3:	1	372	825
840	28	Q2:	2	675	590	744	32
841	10	Q1:	2	313	249
842	36	Q4:	1
843	14	Q3:	3
844	37	Q2:	2	839
845	10	Q4:	0
846	16	Q3:	0	459	222
847	21	Q4:	1	2
848	9	Q0:	1	800	393
849	37	Q2:	1	389	578	826
850	33	Q0:	2	150	396	543
851	11	Q0:	1
852	14	Q2:	2
853	33	Q4:	2	764
854	18	Q0:	1	48	95
855	14	Q4:	0	544	258
856	15	Q2:	0	271	117	278
857	37	Q1:	0	544	428	553
858	40	Q0:	1	379	110
859	23	Q4:	2	497	712
860	18	Q3:	2	726
861	13	Q4:	2	402	210	482	97	642
862	30	Q1:	0
863	32	Q1:	3	613	373	631	687
864	21	Q3:	1	400	224
865	24	Q4:	3	222
866	19	Q1:	2	256
867	32	Q3:	0
868	25	Q3:	3	15	867
869	38	Q1:	1	94
870	30	Q3:	1	510	196	356
871	26	Q1:	3	42	845	369
872	36	Q0:	2	588	785	39	593	254
873	25	Q1:	0	619	575
874	35	Q0:	1	181
875	28	Q4:	2	453	296
876	34	Q2:	1
877	12	Q3:	3
878	13	Q3:	0	733
879	38	Q0:	3	62
880	14	Q1:	1	809	413	169	19
881	17	Q3:	3	823
882	11	Q3:	1	712	765
883	30	Q1:	3	832	213	112
884	14	Q2:	3	228
885	29	Q0:	1	836	336
886	37	Q2:	2	514	538
887	23	Q2:	1	542
888	30	Q3:	2
889	27	Q4:	0	803
890	13	Q1:	3
891	29	Q3:	0	716	122	117
892	29	Q2:	0	780
893	33	Q2:	0
894	33	Q0:	2	564
895	16	Q2:	3	19	823	460	495
896	34	Q2:	2
897	36	Q3:	3	9	595
898	29	Q4:	0	105	327	595
899	38	Q3:	3	61	156	393
900	16	Q4:	0	541	426	291
901	27	Q1:	0	147	261
902	10	Q0:	2
903	17	Q0:	0	261
904	26	Q1:	1	582
905	38	Q1:	1	590	503
906	27	Q1:	1	542	759	843
907	35	Q1:	0	793	232
908	28	Q0:	1
909	12	Q1:	2	264	164	829
910	29	Q4:	1	120
911	34	Q2:	0	361
912	22	Q3:	0	686	577	316
913	14	Q2:	1	94	100	393
914	39	Q1:	0
915	25	Q0:	3	204
916	28	Q4:	1	330	412	19
917	23	Q2:	0	717
918	22	Q0:	3	913
919	23	Q0:	1	891	479
920	30	Q2:	1	771	115	156	686	590
921	18	Q1:	1
922	17	Q4:	1	829
923	23	Q3:	3	189	256
924	33	Q3:	0	321	817	764
925	21	Q0:	3	39	144
926	11	Q3:	1	53	281	562	736	531	428
927	30	Q1:	1	286
928	11	Q2:	1	600	554	504
929	31	Q1:	3	619	648
930	27	Q3:	1	414	315
931	14	Q2:	3	234	571
932	21	Q4:	0	684
933	27	Q3:	2	134	370	561	741	466
934	30	Q3:	3	921	230
935	28	Q0:	1	502	67
936	26	Q2:	0
937	22	Q1:	2	444	247
938	21	Q2:	2
939	30	Q3:	2	917	109	501
940	9	Q1:	1	172	63
941	24	Q1:	3	57	168	118	926
942	16	Q1:	1	89	923	787
943	17	Q2:	3	838	632	307	124
944	29	Q3:	2	197	555
945	39	Q1:	0	178
946	39	Q0:	1	756	112	882
947	19	Q1:	3	493
948	37	Q1:	1
949	15	Q4:	1	794	159
950	12	Q3:	1	941
951	19	Q3:	3	905
952	30	Q3:	0	534
953	21	Q1:	0	637
954	21	Q3:	1	311	485
955	20	Q3:	1	538	190	323
956	28	Q4:	2	723
957	21	Q2:	2	763
958	25	Q1:	2	943	818	99
959	9	Q2:	0	313	31	384	238
960	29	Q2:	0	30	938
961	36	Q2:	1	637	796
962	36	Q3:	0	366	456	204	674
963	22	Q1:	3	375	409	684	769
964	17	Q4:	0
965	29	Q3:	0	444	176	929	53	764
966	36	Q1:	0
967	25	Q0:	0	310
968	27	Q0:	3
969	19	Q3:	0	95	305
970	9	Q3:	0
971	39	Q0:	2	895	233	2	11	202	737
972	34	Q1:	0	943	510
973	36	Q0:	3
974	28	Q4:	1	897	173	108
975	27	Q4:	3	320	175
976	14	Q4:	0	294	473	540	405
977	25	Q3:	1	412
978	29	Q3:	3	38	180	423	317
979	24	Q1:	2	646	785	498	374
980	10	Q4:	1
981	32	Q1:	0	702
982	39	Q1:	2	183	534	30	104	980
983	24	Q3:	3	224	349
984	37	Q1:	1	803	704
985	23	Q1:	3	102	350
986	13	Q2:	2	322	382
987	14	Q1:	1	605
988	14	Q0:	3	764	703
989	22	Q4:	1	720	649	682	186
990	18	Q3:	2	816
991	21	Q4:	2	22	55	45	227	283
992	11	Q4:	0	535	229
993	24	Q3:	3	317	402	852	70
994	32	Q2:	2	83	760	700
995	32	Q2:	3	799
996	20	Q4:	3	827	443	779
997	37	Q1:	0	946
998	17	Q2:	1
999	25	Q2:	3	264	884	170	612
1000	22	Q0:	3
========================================================== 